200
1000
378
378
377
377
375
374
371
367
367
365
365
361
356
353
349
345
342
339
337
334
334
330
330
330
329
328
325
325
324
322
317
316
316
315
313
312
310
307
305
303
300
293
290
284
283
283
281
281
280
280
278
275
272
270
270
263
260
258
255
253
251
251
251
249
248
248
246
245
243
242
242
239
239
237
235
234
234
233
232
230
230
228
227
225
225
224
220
218
217
217
215
210
204
202
201
200
197
196
195
194
191
180
173
173
172
172
172
170
168
166
163
163
163
162
161
160
157
155
154
151
148
147
144
144
143
142
142
142
141
141
141
137
133
132
132
131
131
127
124
122
120
120
117
116
115
113
112
111
109
108
107
104
103
100
99
98
97
96
94
91
90
89
89
88
88
87
82
82
80
77
76
75
75
71
67
65
65
63
61
60
58
55
53
52
51
48
47
47
43
43
37
34
34
31
27
27
26
25
24
23
